(set-logic SLHV)
(declare-hvar emp IntHeap)
(declare-locvar nil IntLoc)
(declare-datatype pt_record_0 ((Pt_R_0 (loc IntLoc))))
(declare-datatype pt_record_1 ((Pt_R_1 (data Int))))
(declare-const d16 Int)
(declare-locvar l15 IntLoc)
(declare-hvar ah7 IntHeap)
(declare-hvar AH_5 IntHeap)
(declare-const d15 Int)
(declare-locvar l13 IntLoc)
(declare-hvar h8 IntHeap)
(declare-hvar H_5 IntHeap)
(declare-locvar l14 IntLoc)
(declare-const loc_5 Int)
(declare-const $r_main0_4 Int)
(declare-const $r_main0_5 Int)
(declare-const $i8_main0_4 Int)
(declare-const $i8_main0_5 Int)
(declare-const $i2_main0_4 Int)
(declare-const $i2_main0_5 Int)
(declare-const $i10_main0_4 Int)
(declare-const $i10_main0_5 Int)
(declare-locvar $p9_main0_4 IntLoc)
(declare-locvar $p9_main0_5 IntLoc)
(declare-locvar $p7_main0_4 IntLoc)
(declare-locvar $p7_main0_5 IntLoc)
(declare-locvar $p6_main0_4 IntLoc)
(declare-locvar $p6_main0_5 IntLoc)
(declare-locvar $p5_main0_4 IntLoc)
(declare-locvar $p5_main0_5 IntLoc)
(declare-locvar $p4_main0_4 IntLoc)
(declare-locvar $p4_main0_5 IntLoc)
(declare-locvar $p3_main0_4 IntLoc)
(declare-locvar $p3_main0_5 IntLoc)
(declare-locvar $p1_main0_4 IntLoc)
(declare-locvar $p1_main0_5 IntLoc)
(declare-locvar $p13_main0_4 IntLoc)
(declare-locvar $p13_main0_5 IntLoc)
(declare-locvar $p12_main0_4 IntLoc)
(declare-locvar $p12_main0_5 IntLoc)
(declare-locvar $p11_main0_4 IntLoc)
(declare-locvar $p11_main0_5 IntLoc)
(declare-locvar $p0_main0_4 IntLoc)
(declare-locvar $p0_main0_5 IntLoc)
(declare-hvar H6_5 IntHeap)
(declare-hvar AH5_5 IntHeap)
(declare-locvar $p15_main01_5 IntLoc)
(declare-locvar $p15_main0_5 IntLoc)
(declare-locvar $p14_main01_5 IntLoc)
(declare-locvar $p14_main0_5 IntLoc)
(declare-locvar $M.04_5 IntLoc)
(declare-locvar $M.0_5 IntLoc)
(declare-hvar h7_5 IntHeap)
(declare-locvar l12_5 IntLoc)
(declare-const d13_5 Int)
(declare-hvar H_4 IntHeap)
(declare-const d11_5 Int)
(declare-locvar l11_5 IntLoc)
(declare-const d12_5 Int)
(declare-hvar ah5 IntHeap)
(declare-hvar AH_4 IntHeap)
(declare-locvar $M.0_4 IntLoc)
(declare-const loc_4 Int)
(declare-locvar $p15_main0_4 IntLoc)
(declare-locvar $p14_main0_4 IntLoc)
(declare-hvar H_3 IntHeap)
(declare-hvar AH_3 IntHeap)
(declare-const $r_main0_3 Int)
(declare-const $i8_main0_3 Int)
(declare-const $i2_main0_3 Int)
(declare-const $i10_main0_3 Int)
(declare-locvar $p9_main0_3 IntLoc)
(declare-locvar $p7_main0_3 IntLoc)
(declare-locvar $p6_main0_3 IntLoc)
(declare-locvar $p5_main0_3 IntLoc)
(declare-locvar $p4_main0_3 IntLoc)
(declare-locvar $p3_main0_3 IntLoc)
(declare-locvar $p1_main0_3 IntLoc)
(declare-locvar $p15_main0_3 IntLoc)
(declare-locvar $p14_main0_3 IntLoc)
(declare-locvar $p13_main0_3 IntLoc)
(declare-locvar $p12_main0_3 IntLoc)
(declare-locvar $p11_main0_3 IntLoc)
(declare-locvar $p0_main0_3 IntLoc)
(declare-locvar $M.0_3 IntLoc)
(declare-const loc_3 Int)
(declare-hvar H5_4 IntHeap)
(declare-hvar AH4_4 IntHeap)
(declare-locvar $p13_main01_4 IntLoc)
(declare-locvar $p12_main01_4 IntLoc)
(declare-locvar $p11_main01_4 IntLoc)
(declare-hvar h6_4 IntHeap)
(declare-locvar l10_4 IntLoc)
(declare-const d9_4 Int)
(declare-const d7_4 Int)
(declare-locvar l9_4 IntLoc)
(declare-const d8_4 Int)
(declare-hvar ah3 IntHeap)
(declare-locvar l7_4 IntLoc)
(declare-hvar h4_4 IntHeap)
(declare-const $r_main01_4 Int)
(declare-hvar H_2 IntHeap)
(declare-hvar AH_2 IntHeap)
(declare-const $r_main0_2 Int)
(declare-const $i8_main0_2 Int)
(declare-const $i2_main0_2 Int)
(declare-const $i10_main0_2 Int)
(declare-locvar $p9_main0_2 IntLoc)
(declare-locvar $p7_main0_2 IntLoc)
(declare-locvar $p6_main0_2 IntLoc)
(declare-locvar $p5_main0_2 IntLoc)
(declare-locvar $p4_main0_2 IntLoc)
(declare-locvar $p3_main0_2 IntLoc)
(declare-locvar $p1_main0_2 IntLoc)
(declare-locvar $p15_main0_2 IntLoc)
(declare-locvar $p14_main0_2 IntLoc)
(declare-locvar $p13_main0_2 IntLoc)
(declare-locvar $p12_main0_2 IntLoc)
(declare-locvar $p11_main0_2 IntLoc)
(declare-locvar $p0_main0_2 IntLoc)
(declare-locvar $M.0_2 IntLoc)
(declare-const loc_2 Int)
(declare-locvar $p9_main01_3 IntLoc)
(declare-const $i10_main01_3 Int)
(declare-const $r_main01_3 Int)
(declare-const $r_main0_1 Int)
(declare-const $i8_main0_1 Int)
(declare-const $i2_main0_1 Int)
(declare-const $i10_main0_1 Int)
(declare-locvar $p9_main0_1 IntLoc)
(declare-locvar $p4_main0_1 IntLoc)
(declare-locvar $p3_main0_1 IntLoc)
(declare-locvar $p1_main0_1 IntLoc)
(declare-locvar $p15_main0_1 IntLoc)
(declare-locvar $p14_main0_1 IntLoc)
(declare-locvar $p13_main0_1 IntLoc)
(declare-locvar $p12_main0_1 IntLoc)
(declare-locvar $p11_main0_1 IntLoc)
(declare-locvar $p0_main0_1 IntLoc)
(declare-locvar $M.0_1 IntLoc)
(declare-hvar H4_2 IntHeap)
(declare-hvar AH3_2 IntHeap)
(declare-locvar $p7_main01_2 IntLoc)
(declare-locvar $p6_main01_2 IntLoc)
(declare-locvar $p5_main01_2 IntLoc)
(declare-hvar h2_2 IntHeap)
(declare-locvar l5_2 IntLoc)
(declare-hvar H3_2 IntHeap)
(declare-locvar l4_2 IntLoc)
(declare-hvar AH_1 IntHeap)
(declare-const d6_2 Int)
(declare-hvar H_1 IntHeap)
(declare-const loc_1 Int)
(declare-locvar $p7_main0_1 IntLoc)
(declare-locvar $p6_main0_1 IntLoc)
(declare-locvar $p5_main0_1 IntLoc)
(declare-hvar H2_2 IntHeap)
(declare-hvar AH2_2 IntHeap)
(declare-locvar $p4_main01_2 IntLoc)
(declare-locvar $p3_main01_2 IntLoc)
(declare-locvar $M.03_2 IntLoc)
(declare-hvar h1_2 IntHeap)
(declare-locvar l3_2 IntLoc)
(declare-const d4_2 Int)
(declare-const d2_2 Int)
(declare-locvar l2_2 IntLoc)
(declare-const d3_2 Int)
(declare-hvar ah1 IntHeap)
(declare-const $r_main0_0 Int)
(declare-const $i8_main0_0 Int)
(declare-const $i2_main0_0 Int)
(declare-const $i10_main0_0 Int)
(declare-locvar $p9_main0_0 IntLoc)
(declare-locvar $p7_main0_0 IntLoc)
(declare-locvar $p6_main0_0 IntLoc)
(declare-locvar $p5_main0_0 IntLoc)
(declare-locvar $p4_main0_0 IntLoc)
(declare-locvar $p3_main0_0 IntLoc)
(declare-locvar $p15_main0_0 IntLoc)
(declare-locvar $p14_main0_0 IntLoc)
(declare-locvar $p13_main0_0 IntLoc)
(declare-locvar $p12_main0_0 IntLoc)
(declare-locvar $p11_main0_0 IntLoc)
(declare-hvar H1_1 IntHeap)
(declare-hvar AH1_1 IntHeap)
(declare-locvar $p1_main01_1 IntLoc)
(declare-locvar $p0_main01_1 IntLoc)
(declare-locvar $M.02_1 IntLoc)
(declare-locvar l1_1 IntLoc)
(declare-hvar AH_0 IntHeap)
(declare-const d1_1 Int)
(declare-hvar H_0 IntHeap)
(declare-locvar $M.01_1 IntLoc)
(declare-const loc_0 Int)
(assert
 (let (($x1483 (= AH_5 (uplus ah7 (pt l15 (Pt_R_1 d16))))))
 (let (($x1476 (or (= H_5 (uplus h8 (pt l13 (Pt_R_0 l14)))) (= H_5 (uplus h8 (pt l13 (Pt_R_1 d15)))))))
 (let (($x1104 (= loc_5 5)))
 (let (($x1180 (= loc_5 3)))
 (let (($x1090 (= $r_main0_5 $r_main0_4)))
 (let (($x1087 (= $i8_main0_5 $i8_main0_4)))
 (let (($x1084 (= $i2_main0_5 $i2_main0_4)))
 (let (($x1091 (and (and (and (and true (= $i10_main0_5 $i10_main0_4)) $x1084) $x1087) $x1090)))
 (let (($x1077 (= $p9_main0_5 $p9_main0_4)))
 (let (($x1074 (= $p7_main0_5 $p7_main0_4)))
 (let (($x1071 (= $p6_main0_5 $p6_main0_4)))
 (let (($x1068 (= $p5_main0_5 $p5_main0_4)))
 (let (($x1065 (= $p4_main0_5 $p4_main0_4)))
 (let (($x1062 (= $p3_main0_5 $p3_main0_4)))
 (let (($x1059 (= $p1_main0_5 $p1_main0_4)))
 (let (($x1050 (= $p13_main0_5 $p13_main0_4)))
 (let (($x1047 (= $p12_main0_5 $p12_main0_4)))
 (let (($x1044 (= $p11_main0_5 $p11_main0_4)))
 (let (($x1169 (and (and (and (and true (= $p0_main0_5 $p0_main0_4)) $x1044) $x1047) $x1050)))
 (let (($x1175 (and (and (and (and (and (and $x1169 $x1059) $x1062) $x1065) $x1068) $x1071) $x1074)))
 (let (($x1176 (and $x1175 $x1077)))
 (let (($x1162 (= H_5 H6_5)))
 (let (($x1160 (= AH_5 AH5_5)))
 (let (($x1158 (= $p15_main0_5 $p15_main01_5)))
 (let (($x1159 (and (and (= $M.0_5 $M.04_5) (= $p14_main0_5 $p14_main01_5)) $x1158)))
 (let (($x1163 (and (and $x1159 $x1160) $x1162)))
 (let (($x1164 (and $x1163 true)))
 (let (($x1118 (= $M.04_5 nil)))
 (let (($x1120 (= H6_5 h7_5)))
 (let (($x1121 (= $p15_main01_5 l12_5)))
 (let (($x1125 (= H_4 (uplus h7_5 (pt l12_5 (Pt_R_1 d13_5))))))
 (let (($x1128 (= d11_5 1)))
 (let (($x1130 (= $p15_main01_5 l11_5)))
 (let (($x1134 (= H_4 (uplus h7_5 (pt l11_5 (Pt_R_1 d12_5))))))
 (let (($x1137 (= d11_5 2)))
 (let (($x1139 (and (=> $x1137 (and (and $x1134 $x1130) $x1120)) (=> $x1128 (and (and $x1125 $x1121) $x1120)))))
 (let (($x1140 (= AH5_5 ah5)))
 (let (($x1144 (= AH_4 (uplus ah5 (pt $p15_main01_5 (Pt_R_1 d11_5))))))
 (let (($x1146 (and (and $x1144 $x1140) $x1139)))
 (let (($x1455 (and (and (= $p14_main01_5 $M.0_4) (= $p15_main01_5 $p14_main01_5)) $x1146)))
 (let (($x1025 (= loc_4 7)))
 (let (($x1461 (=> $x1025 (and (and (and (and (and $x1455 $x1118) $x1164) $x1176) $x1091) $x1180))))
 (let (($x1097 (= H_5 H_4)))
 (let (($x1098 (and (and true (= AH_5 AH_4)) $x1097)))
 (let (($x1056 (= $p15_main0_5 $p15_main0_4)))
 (let (($x1053 (= $p14_main0_5 $p14_main0_4)))
 (let (($x1041 (= $p0_main0_5 $p0_main0_4)))
 (let (($x1051 (and (and (and (and (and true (= $M.0_5 $M.0_4)) $x1041) $x1044) $x1047) $x1050)))
 (let (($x1069 (and (and (and (and (and (and $x1051 $x1053) $x1056) $x1059) $x1062) $x1065) $x1068)))
 (let (($x1078 (and (and (and $x1069 $x1071) $x1074) $x1077)))
 (let (($x833 (and true true)))
 (let (($x916 (= loc_4 5)))
 (let (($x1462 (and (=> $x916 (and (and (and (and $x833 $x1078) $x1091) $x1098) $x1104)) $x1461)))
 (let (($x909 (= H_4 H_3)))
 (let (($x910 (and (and true (= AH_4 AH_3)) $x909)))
 (let (($x922 (= $r_main0_4 $r_main0_3)))
 (let (($x902 (= $i8_main0_4 $i8_main0_3)))
 (let (($x899 (= $i2_main0_4 $i2_main0_3)))
 (let (($x903 (and (and (and true (= $i10_main0_4 $i10_main0_3)) $x899) $x902)))
 (let (($x923 (and $x903 $x922)))
 (let (($x892 (= $p9_main0_4 $p9_main0_3)))
 (let (($x889 (= $p7_main0_4 $p7_main0_3)))
 (let (($x886 (= $p6_main0_4 $p6_main0_3)))
 (let (($x883 (= $p5_main0_4 $p5_main0_3)))
 (let (($x880 (= $p4_main0_4 $p4_main0_3)))
 (let (($x877 (= $p3_main0_4 $p3_main0_3)))
 (let (($x874 (= $p1_main0_4 $p1_main0_3)))
 (let (($x871 (= $p15_main0_4 $p15_main0_3)))
 (let (($x868 (= $p14_main0_4 $p14_main0_3)))
 (let (($x865 (= $p13_main0_4 $p13_main0_3)))
 (let (($x862 (= $p12_main0_4 $p12_main0_3)))
 (let (($x859 (= $p11_main0_4 $p11_main0_3)))
 (let (($x856 (= $p0_main0_4 $p0_main0_3)))
 (let (($x857 (and (and true (= $M.0_4 $M.0_3)) $x856)))
 (let (($x875 (and (and (and (and (and (and $x857 $x859) $x862) $x865) $x868) $x871) $x874)))
 (let (($x893 (and (and (and (and (and (and $x875 $x877) $x880) $x883) $x886) $x889) $x892)))
 (let (($x1431 (and (and (and $x833 $x893) $x923) $x910)))
 (let (($x826 (= loc_3 6)))
 (let (($x1030 (and $x826 (not (= $i10_main0_3 1)))))
 (let (($x1018 (and (and (and (and (and (and $x857 $x868) $x871) $x874) $x877) $x880) $x883)))
 (let (($x1021 (and (and (and $x1018 $x886) $x889) $x892)))
 (let (($x1008 (= H_4 H5_4)))
 (let (($x1006 (= AH_4 AH4_4)))
 (let (($x1004 (= $p13_main0_4 $p13_main01_4)))
 (let (($x1002 (= $p12_main0_4 $p12_main01_4)))
 (let (($x1001 (= $p11_main0_4 $p11_main01_4)))
 (let (($x1009 (and (and (and (and $x1001 $x1002) $x1004) $x1006) $x1008)))
 (let (($x948 (= H5_4 h6_4)))
 (let (($x949 (= $p13_main01_4 l10_4)))
 (let (($x953 (= H_3 (uplus h6_4 (pt l10_4 (Pt_R_1 d9_4))))))
 (let (($x956 (= d7_4 1)))
 (let (($x958 (= $p13_main01_4 l9_4)))
 (let (($x962 (= H_3 (uplus h6_4 (pt l9_4 (Pt_R_1 d8_4))))))
 (let (($x965 (= d7_4 2)))
 (let (($x967 (and (=> $x965 (and (and $x962 $x958) $x948)) (=> $x956 (and (and $x953 $x949) $x948)))))
 (let (($x968 (= AH4_4 ah3)))
 (let (($x972 (= AH_3 (uplus ah3 (pt $p13_main01_4 (Pt_R_1 d7_4))))))
 (let (($x974 (and (and $x972 $x968) $x967)))
 (let (($x976 (= $p13_main01_4 $p12_main01_4)))
 (let (($x980 (= $p12_main01_4 l7_4)))
 (let (($x984 (= H_3 (uplus h4_4 (pt $p11_main01_4 (Pt_R_0 l7_4))))))
 (let (($x985 (and $x984 $x980)))
 (let (($x996 (= $p11_main01_4 $M.0_3)))
 (let (($x1440 (and (and (and (and (and $x996 $x985) $x976) $x974) (and $x1009 true)) $x1021)))
 (let (($x946 (= $i10_main0_3 1)))
 (let (($x947 (and $x826 $x946)))
 (let (($x849 (= $r_main0_4 $r_main01_4)))
 (let (($x850 (and $x849 true)))
 (let (($x846 (= $r_main01_4 0)))
 (let (($x840 (= loc_3 3)))
 (let (($x1428 (=> $x840 (and (and (and (and (and $x846 $x850) $x893) $x903) $x910) $x916))))
 (let (($x1444 (and (and $x1428 (=> (= loc_3 5) (and $x1431 $x916))) (=> $x947 (and (and $x1440 $x923) $x1025)))))
 (let (($x786 (= H_3 H_2)))
 (let (($x787 (and (and true (= AH_3 AH_2)) $x786)))
 (let (($x820 (= $r_main0_3 $r_main0_2)))
 (let (($x779 (= $i8_main0_3 $i8_main0_2)))
 (let (($x776 (= $i2_main0_3 $i2_main0_2)))
 (let (($x780 (and (and (and true (= $i10_main0_3 $i10_main0_2)) $x776) $x779)))
 (let (($x836 (and $x780 $x820)))
 (let (($x769 (= $p9_main0_3 $p9_main0_2)))
 (let (($x766 (= $p7_main0_3 $p7_main0_2)))
 (let (($x763 (= $p6_main0_3 $p6_main0_2)))
 (let (($x760 (= $p5_main0_3 $p5_main0_2)))
 (let (($x757 (= $p4_main0_3 $p4_main0_2)))
 (let (($x754 (= $p3_main0_3 $p3_main0_2)))
 (let (($x751 (= $p1_main0_3 $p1_main0_2)))
 (let (($x748 (= $p15_main0_3 $p15_main0_2)))
 (let (($x745 (= $p14_main0_3 $p14_main0_2)))
 (let (($x742 (= $p13_main0_3 $p13_main0_2)))
 (let (($x739 (= $p12_main0_3 $p12_main0_2)))
 (let (($x736 (= $p11_main0_3 $p11_main0_2)))
 (let (($x733 (= $p0_main0_3 $p0_main0_2)))
 (let (($x743 (and (and (and (and (and true (= $M.0_3 $M.0_2)) $x733) $x736) $x739) $x742)))
 (let (($x761 (and (and (and (and (and (and $x743 $x745) $x748) $x751) $x754) $x757) $x760)))
 (let (($x767 (and (and $x761 $x763) $x766)))
 (let (($x770 (and $x767 $x769)))
 (let (($x717 (= loc_2 4)))
 (let (($x831 (and $x717 (not (= $i8_main0_2 1)))))
 (let (($x821 (and (and (and true $x776) $x779) $x820)))
 (let (($x813 (= $p9_main0_3 $p9_main01_3)))
 (let (($x812 (= $i10_main0_3 $i10_main01_3)))
 (let (($x814 (and $x812 $x813)))
 (let (($x815 (and $x814 true)))
 (let (($x807 (or (and (and (distinct $p9_main01_3 nil) true) (= $i10_main01_3 1)) (and (not (and (distinct $p9_main01_3 nil) true)) (= $i10_main01_3 0)))))
 (let (($x809 (= $p9_main01_3 $M.0_2)))
 (let (($x1413 (and (and (and (and (and (and $x809 $x807) $x815) $x767) $x821) $x787) $x826)))
 (let (($x799 (= $i8_main0_2 1)))
 (let (($x800 (and $x717 $x799)))
 (let (($x794 (= loc_3 5)))
 (let (($x726 (= $r_main0_3 $r_main01_3)))
 (let (($x727 (and $x726 true)))
 (let (($x723 (= $r_main01_3 0)))
 (let (($x632 (= loc_2 3)))
 (let (($x1407 (=> $x632 (and (and (and (and (and $x723 $x727) $x770) $x780) $x787) $x794))))
 (let (($x1421 (and (and $x1407 (=> $x800 $x1413)) (=> $x831 (and (and (and (and $x833 $x770) $x836) $x787) $x840)))))
 (let (($x624 (= $r_main0_2 $r_main0_1)))
 (let (($x621 (= $i8_main0_2 $i8_main0_1)))
 (let (($x618 (= $i2_main0_2 $i2_main0_1)))
 (let (($x625 (and (and (and (and true (= $i10_main0_2 $i10_main0_1)) $x618) $x621) $x624)))
 (let (($x611 (= $p9_main0_2 $p9_main0_1)))
 (let (($x711 (= $p4_main0_2 $p4_main0_1)))
 (let (($x709 (= $p3_main0_2 $p3_main0_1)))
 (let (($x599 (= $p1_main0_2 $p1_main0_1)))
 (let (($x596 (= $p15_main0_2 $p15_main0_1)))
 (let (($x593 (= $p14_main0_2 $p14_main0_1)))
 (let (($x590 (= $p13_main0_2 $p13_main0_1)))
 (let (($x587 (= $p12_main0_2 $p12_main0_1)))
 (let (($x584 (= $p11_main0_2 $p11_main0_1)))
 (let (($x581 (= $p0_main0_2 $p0_main0_1)))
 (let (($x705 (and (and (and (and (and true (= $M.0_2 $M.0_1)) $x581) $x584) $x587) $x590)))
 (let (($x713 (and (and (and (and (and (and $x705 $x593) $x596) $x599) $x709) $x711) $x611)))
 (let (($x695 (= H_2 H4_2)))
 (let (($x693 (= AH_2 AH3_2)))
 (let (($x691 (= $p7_main0_2 $p7_main01_2)))
 (let (($x692 (and (and (= $p5_main0_2 $p5_main01_2) (= $p6_main0_2 $p6_main01_2)) $x691)))
 (let (($x696 (and (and $x692 $x693) $x695)))
 (let (($x1241 (and $x696 true)))
 (let (($x654 (= H4_2 (uplus h2_2 (pt $p7_main01_2 (Pt_R_0 $p5_main01_2))))))
 (let (($x658 (= H3_2 (uplus h2_2 (pt $p7_main01_2 (Pt_R_0 l5_2))))))
 (let (($x659 (and $x658 $x654)))
 (let (($x670 (= $p7_main01_2 $M.0_1)))
 (let (($x672 (= $p6_main01_2 $p5_main01_2)))
 (let (($x676 (= AH3_2 (uplus AH_1 (pt l4_2 (Pt_R_1 2))))))
 (let (($x677 (= $p5_main01_2 l4_2)))
 (let (($x681 (= H3_2 (uplus H_1 (pt l4_2 (Pt_R_1 d6_2))))))
 (let (($x683 (and (and $x681 $x677) $x676)))
 (let (($x1397 (and (and (and (and (and (and $x683 $x672) $x670) $x659) $x1241) $x713) $x625)))
 (let (($x510 (= loc_1 2)))
 (let (($x648 (and $x510 (not (= $i2_main0_1 1)))))
 (let (($x608 (= $p7_main0_2 $p7_main0_1)))
 (let (($x605 (= $p6_main0_2 $p6_main0_1)))
 (let (($x602 (= $p5_main0_2 $p5_main0_1)))
 (let (($x597 (and (and (and (and (and (and true $x581) $x584) $x587) $x590) $x593) $x596)))
 (let (($x612 (and (and (and (and (and $x597 $x599) $x602) $x605) $x608) $x611)))
 (let (($x576 (= H_2 H2_2)))
 (let (($x573 (= AH_2 AH2_2)))
 (let (($x570 (= $p4_main0_2 $p4_main01_2)))
 (let (($x571 (and (and (= $M.0_2 $M.03_2) (= $p3_main0_2 $p3_main01_2)) $x570)))
 (let (($x577 (and (and $x571 $x573) $x576)))
 (let (($x578 (and $x577 true)))
 (let (($x527 (= $M.03_2 nil)))
 (let (($x529 (= H2_2 h1_2)))
 (let (($x530 (= $p4_main01_2 l3_2)))
 (let (($x534 (= H_1 (uplus h1_2 (pt l3_2 (Pt_R_1 d4_2))))))
 (let (($x537 (= d2_2 1)))
 (let (($x539 (= $p4_main01_2 l2_2)))
 (let (($x543 (= H_1 (uplus h1_2 (pt l2_2 (Pt_R_1 d3_2))))))
 (let (($x546 (= d2_2 2)))
 (let (($x548 (and (=> $x546 (and (and $x543 $x539) $x529)) (=> $x537 (and (and $x534 $x530) $x529)))))
 (let (($x549 (= AH2_2 ah1)))
 (let (($x553 (= AH_1 (uplus ah1 (pt $p4_main01_2 (Pt_R_1 d2_2))))))
 (let (($x555 (and (and $x553 $x549) $x548)))
 (let (($x1385 (and (and (= $p3_main01_2 $M.0_1) (= $p4_main01_2 $p3_main01_2)) $x555)))
 (let (($x525 (= $i2_main0_1 1)))
 (let (($x526 (and $x510 $x525)))
 (let (($x1391 (=> $x526 (and (and (and (and (and $x1385 $x527) $x578) $x612) $x625) $x632))))
 (let (($x503 (= $r_main0_1 $r_main0_0)))
 (let (($x499 (= $i8_main0_1 $i8_main0_0)))
 (let (($x495 (= $i2_main0_1 $i2_main0_0)))
 (let (($x504 (and (and (and (and true (= $i10_main0_1 $i10_main0_0)) $x495) $x499) $x503)))
 (let (($x486 (= $p9_main0_1 $p9_main0_0)))
 (let (($x482 (= $p7_main0_1 $p7_main0_0)))
 (let (($x478 (= $p6_main0_1 $p6_main0_0)))
 (let (($x474 (= $p5_main0_1 $p5_main0_0)))
 (let (($x470 (= $p4_main0_1 $p4_main0_0)))
 (let (($x466 (= $p3_main0_1 $p3_main0_0)))
 (let (($x462 (= $p15_main0_1 $p15_main0_0)))
 (let (($x458 (= $p14_main0_1 $p14_main0_0)))
 (let (($x454 (= $p13_main0_1 $p13_main0_0)))
 (let (($x450 (= $p12_main0_1 $p12_main0_0)))
 (let (($x459 (and (and (and (and true (= $p11_main0_1 $p11_main0_0)) $x450) $x454) $x458)))
 (let (($x483 (and (and (and (and (and (and $x459 $x462) $x466) $x470) $x474) $x478) $x482)))
 (let (($x487 (and $x483 $x486)))
 (let (($x440 (= H_1 H1_1)))
 (let (($x437 (= AH_1 AH1_1)))
 (let (($x434 (= $p1_main0_1 $p1_main01_1)))
 (let (($x435 (and (and (= $M.0_1 $M.02_1) (= $p0_main0_1 $p0_main01_1)) $x434)))
 (let (($x442 (and (and (and $x435 $x437) $x440) true)))
 (let (($x408 (= $M.02_1 $p0_main01_1)))
 (let (($x410 (= $p1_main01_1 $p0_main01_1)))
 (let (($x414 (= AH1_1 (uplus AH_0 (pt l1_1 (Pt_R_1 1))))))
 (let (($x415 (= $p0_main01_1 l1_1)))
 (let (($x419 (= H1_1 (uplus H_0 (pt l1_1 (Pt_R_1 d1_1))))))
 (let (($x421 (and (and $x419 $x415) $x414)))
 (let (($x423 (= $M.01_1 nil)))
 (let (($x1380 (and (and (and (and (and (and $x423 $x421) $x410) $x408) $x442) $x487) $x504)))
 (let (($x394 (= loc_0 1)))
 (let (($x396 (and (and (= H_0 emp) (= AH_0 emp)) $x394)))
 (let (($x1401 (and (and $x396 (=> $x394 (and $x1380 $x510))) (and $x1391 (=> $x648 (and $x1397 $x717))))))
 (let (($x1463 (and (and (and $x1401 $x1421) (and $x1444 (=> $x1030 (and $x1431 $x1025)))) $x1462)))
 (and $x1463 (and (and $x1104 $x1476) $x1483)))))))))))))))))))))))))))))))))))))))))))))))))))))))))))))))))))))))))))))))))))))))))))))))))))))))))))))))))))))))))))))))))))))))))))))))))))))))))))))))))))))))))))))))))))))))))))))))))))))))))))))))))))))))))))))))))))))))))))))))))))))))))))))
(check-sat)
